(declare-const y1_init Int)
(declare-const y2_init Int)
(declare-const c_0 Int)
(declare-const c_1 Int)
(declare-const c_2 Int)
(declare-const c_3 Int)
(declare-const c_4 Int)
(declare-const c_5 Int)
(declare-const c_6 Int)
(declare-const c_7 Int)
(declare-const c_8 Int)
(assert (< c_0 0))
(assert (and (>= (+ (* 1 c_1 ) (* (- 1) y1_init ) ) 0) (>= (+ (* (- 1) c_1 ) (* 1 y1_init ) ) 0) (>= (+ (* 1 c_2 ) (* (- 1) y2_init ) ) 0) (>= (+ (* (- 1) c_2 ) (* 1 y2_init ) ) 0) ))
(assert (forall ((y1 Real) (y2 Real) ) (=> (and (>= (* 1 y1 ) 0) (>= (* 1 y2 ) 0) (>= (+ (* 1 c_1 ) (* (- 1) y1 ) ) 0) (>= (+ (* (- 1) c_1 ) (* 1 y1 ) ) 0) (>= (+ (* 1 c_2 ) (* (- 1) y2 ) ) 0) (>= (+ (* (- 1) c_2 ) (* 1 y2 ) ) 0) ) (>= (+ (* 1 c_3 ) (* 1 c_4 y1 ) (* 1 c_5 y2 ) ) 0) )))
(assert (forall ((y1 Real) (y2 Real) ) (=> (and (>= (* 1 y1 ) 0) (>= (* 1 y2 ) 0) (>= (+ (* 1 c_1 ) (* (- 1) y1 ) ) 0) (>= (+ (* (- 1) c_1 ) (* 1 y1 ) ) 0) (>= (+ (* 1 c_2 ) (* (- 1) y2 ) ) 0) (>= (+ (* (- 1) c_2 ) (* 1 y2 ) ) 0) ) (>= (+ (* 1 c_6 ) (* 1 c_7 y1 ) (* 1 c_8 y2 ) ) 0) )))
(assert (forall ((y1 Real) (y2 Real) ) (=> (and (>= (+ (* (- 1) 1) (* (- 1) y1 ) ) 0) (>= (+ (* 1 c_1 ) (* (- 1) y1 ) ) 0) (>= (+ (* (- 1) c_1 ) (* 1 y1 ) ) 0) (>= (+ (* 1 c_2 ) (* (- 1) y2 ) ) 0) (>= (+ (* (- 1) c_2 ) (* 1 y2 ) ) 0) ) (>= (* 1 c_0 ) 0) )))
(assert (forall ((y1 Real) (y2 Real) ) (=> (and (>= (+ (* (- 1) 1) (* (- 1) y2 ) ) 0) (>= (+ (* 1 c_1 ) (* (- 1) y1 ) ) 0) (>= (+ (* (- 1) c_1 ) (* 1 y1 ) ) 0) (>= (+ (* 1 c_2 ) (* (- 1) y2 ) ) 0) (>= (+ (* (- 1) c_2 ) (* 1 y2 ) ) 0) ) (>= (* 1 c_0 ) 0) )))
(assert (forall ((y1 Real) (y2 Real) ) (=> (and (>= (+ (* (- 1) 1) (* 1 y1 ) (* (- 1) y2 ) ) 0) (>= (+ (* (- 1) 1) (* (- 1) y1 ) (* 1 y2 ) ) 0) (>= (+ (* 1 c_3 ) (* 1 c_4 y1 ) (* 1 c_5 y2 ) ) 0) (>= (+ (* 1 c_6 ) (* 1 c_7 y1 ) (* 1 c_8 y2 ) ) 0) ) (>= (+ (* 1 c_3 ) (* 1 c_4 y1 ) (* (- 1) c_4 y2 ) (* 1 c_5 y2 ) ) 0) )))
(assert (forall ((y1 Real) (y2 Real) ) (=> (and (>= (+ (* (- 1) 1) (* 1 y1 ) (* (- 1) y2 ) ) 0) (>= (+ (* (- 1) 1) (* (- 1) y1 ) (* 1 y2 ) ) 0) (>= (+ (* 1 c_3 ) (* 1 c_4 y1 ) (* 1 c_5 y2 ) ) 0) (>= (+ (* 1 c_6 ) (* 1 c_7 y1 ) (* 1 c_8 y2 ) ) 0) ) (>= (+ (* 1 c_6 ) (* 1 c_7 y1 ) (* (- 1) c_7 y2 ) (* 1 c_8 y2 ) ) 0) )))
(assert (forall ((y1 Real) (y2 Real) ) (=> (and (>= (+ (* (- 1) y1 ) (* 1 y2 ) ) 0) (>= (+ (* (- 1) 1) (* (- 1) y1 ) (* 1 y2 ) ) 0) (>= (+ (* 1 c_3 ) (* 1 c_4 y1 ) (* 1 c_5 y2 ) ) 0) (>= (+ (* 1 c_6 ) (* 1 c_7 y1 ) (* 1 c_8 y2 ) ) 0) ) (>= (+ (* 1 c_3 ) (* 1 c_4 y1 ) (* (- 1) c_5 y1 ) (* 1 c_5 y2 ) ) 0) )))
(assert (forall ((y1 Real) (y2 Real) ) (=> (and (>= (+ (* (- 1) y1 ) (* 1 y2 ) ) 0) (>= (+ (* (- 1) 1) (* (- 1) y1 ) (* 1 y2 ) ) 0) (>= (+ (* 1 c_3 ) (* 1 c_4 y1 ) (* 1 c_5 y2 ) ) 0) (>= (+ (* 1 c_6 ) (* 1 c_7 y1 ) (* 1 c_8 y2 ) ) 0) ) (>= (+ (* 1 c_6 ) (* 1 c_7 y1 ) (* (- 1) c_8 y1 ) (* 1 c_8 y2 ) ) 0) )))
(assert (forall ((y1 Real) (y2 Real) ) (=> (and (>= (+ (* (- 1) 1) (* 1 y1 ) (* (- 1) y2 ) ) 0) (>= (+ (* 1 c_3 ) (* 1 c_4 y1 ) (* 1 c_5 y2 ) ) 0) (>= (+ (* 1 c_6 ) (* 1 c_7 y1 ) (* 1 c_8 y2 ) ) 0) ) (>= (+ (* 1 c_3 ) (* 1 c_4 y1 ) (* (- 1) c_4 y2 ) (* 1 c_5 y2 ) ) 0) )))
(assert (forall ((y1 Real) (y2 Real) ) (=> (and (>= (+ (* (- 1) 1) (* 1 y1 ) (* (- 1) y2 ) ) 0) (>= (+ (* 1 c_3 ) (* 1 c_4 y1 ) (* 1 c_5 y2 ) ) 0) (>= (+ (* 1 c_6 ) (* 1 c_7 y1 ) (* 1 c_8 y2 ) ) 0) ) (>= (+ (* 1 c_6 ) (* 1 c_7 y1 ) (* (- 1) c_7 y2 ) (* 1 c_8 y2 ) ) 0) )))
(assert (forall ((y1 Real) (y2 Real) ) (=> (and (>= (+ (* (- 1) y1 ) (* 1 y2 ) ) 0) (>= (+ (* (- 1) 1) (* 1 y1 ) (* (- 1) y2 ) ) 0) (>= (+ (* 1 c_3 ) (* 1 c_4 y1 ) (* 1 c_5 y2 ) ) 0) (>= (+ (* 1 c_6 ) (* 1 c_7 y1 ) (* 1 c_8 y2 ) ) 0) ) (>= (+ (* 1 c_3 ) (* 1 c_4 y1 ) (* (- 1) c_5 y1 ) (* 1 c_5 y2 ) ) 0) )))
(assert (forall ((y1 Real) (y2 Real) ) (=> (and (>= (+ (* (- 1) y1 ) (* 1 y2 ) ) 0) (>= (+ (* (- 1) 1) (* 1 y1 ) (* (- 1) y2 ) ) 0) (>= (+ (* 1 c_3 ) (* 1 c_4 y1 ) (* 1 c_5 y2 ) ) 0) (>= (+ (* 1 c_6 ) (* 1 c_7 y1 ) (* 1 c_8 y2 ) ) 0) ) (>= (+ (* 1 c_6 ) (* 1 c_7 y1 ) (* (- 1) c_8 y1 ) (* 1 c_8 y2 ) ) 0) )))
(assert (forall ((y1 Real) (y2 Real) ) (=> (and (>= (+ (* 1 y1 ) (* (- 1) y2 ) ) 0) (>= (+ (* (- 1) y1 ) (* 1 y2 ) ) 0) (>= (+ (* 1 c_3 ) (* 1 c_4 y1 ) (* 1 c_5 y2 ) ) 0) (>= (+ (* 1 c_6 ) (* 1 c_7 y1 ) (* 1 c_8 y2 ) ) 0) ) (>= (* 1 c_0 ) 0) )))
(check-sat)
(get-model)

